NAME : n150w20.002.967.tour
COMMENT : Length = 967
COMMENT : Found by LKH [Keld Helsgaun] Tue May  2 05:48:15 2017
TYPE : TOUR
DIMENSION : 151
TOUR_SECTION
1
42
38
104
114
47
58
93
80
77
31
71
88
103
92
22
105
25
7
57
11
149
66
85
8
5
53
30
6
142
61
35
116
94
76
52
109
130
136
119
15
56
131
55
12
86
23
147
139
16
113
91
70
106
18
99
97
59
134
132
64
135
75
29
33
83
24
108
36
98
74
19
72
110
4
14
9
60
111
79
112
81
62
100
21
87
107
126
13
63
43
40
89
137
127
121
146
138
101
82
115
141
68
96
150
37
48
67
46
2
145
54
118
128
44
143
117
10
65
102
129
45
124
73
123
69
148
144
41
28
17
133
26
51
27
49
50
78
90
122
95
32
3
20
120
84
39
140
151
34
125
-1
EOF
